Solving original (integer) problem with strategy gdp.hull_exact...
--- Job model.gms Start 02/15/26 21:56:10 52.2.0 d8e408be LEX-LEG x86 64bit/Linux
--- Applying:
    /package/gams/52.2/gmsprmun.txt
--- GAMS Parameters defined
    Input /local/scratch/a/sgusev/repos/k_means/data/gams_scip_gdp.hull_exact/no_mode/2026-02-15_21-56-10/original/model.gms
    Output /local/scratch/a/sgusev/repos/k_means/data/gams_scip_gdp.hull_exact/no_mode/2026-02-15_21-56-10/original/output.lst
    ScrDir /local/scratch/a/sgusev/repos/k_means/data/gams_scip_gdp.hull_exact/no_mode/2026-02-15_21-56-10/original/225a/
    SysDir /package/gams/52.2/
    CurDir /local/scratch/a/sgusev/repos/k_means/data/gams_scip_gdp.hull_exact/no_mode/2026-02-15_21-56-10/original/
    LogOption 3
    AppendLog 1
Licensee: David Bernal / SECQUOIA Research Group         G251008+0003Ac-GEN
          Purdue University, Davidson School of Chemical EngineeringDCE4838
          225a/gamslice.dat
          5a82958a-fbca-4a23
          node:66820903 mem:995 cores:48 ipport:36405 v:2                  
          Evaluation license: Not for commercial or production use
          The time-limited license stops working on : Jun 30, 2027
System information: 48 physical cores and 995 Gb physical memory detected
GAMS 52.2.0   Copyright (C) 1987-2025 GAMS Development. All rights reserved
--- Starting compilation
--- model.gms(1943) 2 Mb
--- $echo File /local/scratch/a/sgusev/repos/k_means/data/gams_scip_gdp.hull_exact/no_mode/2026-02-15_21-56-10/original/scip.opt
--- model.gms(2881) 2 Mb
--- Starting execution: elapsed 0:00:00.012
--- model.gms(1953) 3 Mb
--- Generating MINLP model GAMS_MODEL
--- model.gms(1957) 5 Mb
---   586 rows  285 columns  1,413 non-zeroes
---   924 nl-code  165 nl-non-zeroes
---   33 discrete-columns
--- Range statistics (absolute non-zero finite values)
--- RHS       [min, max] : [ 1.000E+00, 1.000E+00] - Zero values observed as well
--- Bound     [min, max] : [ 1.000E+00, 6.600E+01] - Zero values observed as well
--- Matrix    [min, max] : [ 1.000E+00, 6.600E+01] - Zero values observed as well
--- model.gms(1957) 3 Mb
--- Executing SCIP (Solvelink=5): elapsed 0:00:00.017

SCIP             52.2.0 d8e408be Dec 8, 2025           LEG x86 64bit/Linux    
SCIP version 9.2.4 (a94f778ac8)
Copyright (c) 2002-2025 Zuse Institute Berlin (ZIB)

External libraries: 
  CPLEX 22.1.2.0       Linear Programming Solver developed by IBM (www.cplex.com)
  CppAD 20180000.0     Algorithmic Differentiation of C++ algorithms developed by B. Bell (github.com/coin-or/CppAD)
  PaPILO 2.4.4         parallel presolve for integer and linear optimization (github.com/scipopt/papilo) (built with TBB) [GitHash: 7c826d50]
  Nauty 2.8.9          Computing Graph Automorphism Groups by Brendan D. McKay (users.cecs.anu.edu.au/~bdm/nauty)
  sassy 1.1            Symmetry preprocessor by Markus Anders (github.com/markusa4/sassy)
  Ipopt 3.14.19        Interior Point Optimizer developed by A. Waechter et.al. (github.com/coin-or/Ipopt)

reading option file /local/scratch/a/sgusev/repos/k_means/data/gams_scip_gdp.hull_exact/no_mode/2026-02-15_21-56-10/original/scip.opt
non-default parameter settings:
limits/time = 300
limits/gap = 1e-06
limits/absgap = 1e-10
lp/threads = 1
misc/printreason = FALSE
numerics/dualfeastol = 1e-06
parallel/maxnthreads = 1
nlpi/ipopt/linear_solver = "ma27"
nlpi/ipopt/linear_system_scaling = "mc19"

original problem has 284 variables (33 bin, 0 int, 251 cont) and 585 constraints

all 1 solutions given by solution candidate storage are infeasible

presolving:
(round 1, fast)       11 del vars, 0 del conss, 0 add conss, 0 chg bounds, 0 chg sides, 0 chg coeffs, 0 upgd conss, 0 impls, 11 clqs
(round 2, fast)       11 del vars, 0 del conss, 0 add conss, 0 chg bounds, 11 chg sides, 0 chg coeffs, 0 upgd conss, 0 impls, 11 clqs
(round 3, exhaustive) 11 del vars, 0 del conss, 0 add conss, 0 chg bounds, 11 chg sides, 0 chg coeffs, 440 upgd conss, 0 impls, 11 clqs
   (0.0s) probing cycle finished: starting next cycle
   (0.0s) symmetry computation started: requiring (bin +, int +, cont +), (fixed: bin -, int -, cont -)
   (0.0s) no symmetry present (symcode time: 0.00)
presolving (4 rounds: 4 fast, 2 medium, 2 exhaustive):
 11 deleted vars, 0 deleted constraints, 0 added constraints, 0 tightened bounds, 0 added holes, 11 changed sides, 0 changed coefficients
 891 implications, 11 cliques
presolved problem has 273 variables (33 bin, 0 int, 0 impl, 240 cont) and 585 constraints
    429 constraints of type <varbound>
     11 constraints of type <setppc>
    112 constraints of type <linear>
     33 constraints of type <nonlinear>
Presolving Time: 0.02

 time | node  | left  |LP iter|LP it/n|mem/heur|mdpt |vars |cons |rows |cuts |sepa|confs|strbr|  dualbound   | primalbound  |  gap   | compl. 
  0.1s|     1 |     0 |   235 |     - |  6725k |   0 | 537 | 585 | 915 |   0 |  0 |   0 |   0 | 0.000000e+00 |      --      |    Inf | unknown
p 0.1s|     1 |     0 |   355 |     - |  clique|   0 | 537 | 585 | 915 |   0 |  0 |   0 |   0 | 0.000000e+00 | 8.778938e+00 |    Inf | unknown
  0.1s|     1 |     0 |   483 |     - |  7477k |   0 | 537 | 585 | 984 |  69 |  1 |   0 |   0 | 0.000000e+00 | 8.778938e+00 |    Inf | unknown
  0.1s|     1 |     0 |   483 |     - |  7490k |   0 | 537 | 585 | 973 |  69 |  1 |   0 |   0 | 0.000000e+00 | 8.778938e+00 |    Inf | unknown
  0.1s|     1 |     0 |   581 |     - |  7650k |   0 | 537 | 585 |1040 | 136 |  2 |   0 |   0 | 0.000000e+00 | 8.778938e+00 |    Inf | unknown
  0.1s|     1 |     0 |   666 |     - |  7796k |   0 | 537 | 585 |1092 | 188 |  3 |   0 |   0 | 0.000000e+00 | 8.778938e+00 |    Inf | unknown
  0.1s|     1 |     0 |   760 |     - |  8457k |   0 | 537 | 585 |1140 | 236 |  4 |   0 |   0 | 0.000000e+00 | 8.778938e+00 |    Inf | unknown
  0.2s|     1 |     0 |   834 |     - |  8645k |   0 | 537 | 585 |1183 | 279 |  5 |   0 |   0 | 0.000000e+00 | 8.778938e+00 |    Inf | unknown
  0.2s|     1 |     0 |   923 |     - |  8885k |   0 | 537 | 585 |1241 | 337 |  6 |   0 |   0 | 0.000000e+00 | 8.778938e+00 |    Inf | unknown
  0.2s|     1 |     0 |  1002 |     - |  9188k |   0 | 537 | 585 |1290 | 386 |  7 |   0 |   0 | 0.000000e+00 | 8.778938e+00 |    Inf | unknown
  0.3s|     1 |     0 |  1080 |     - |  9642k |   0 | 537 | 585 |1344 | 440 |  8 |   0 |   0 | 0.000000e+00 | 8.778938e+00 |    Inf | unknown
  0.4s|     1 |     0 |  1161 |     - |    10M |   0 | 537 | 585 |1390 | 486 |  9 |   0 |   0 | 0.000000e+00 | 8.778938e+00 |    Inf | unknown
  0.4s|     1 |     0 |  1226 |     - |    10M |   0 | 537 | 585 |1168 | 526 | 10 |   0 |   0 | 0.000000e+00 | 8.778938e+00 |    Inf | unknown
  0.4s|     1 |     0 |  1294 |     - |    10M |   0 | 537 | 585 |1203 | 561 | 11 |   0 |   0 | 0.000000e+00 | 8.778938e+00 |    Inf | unknown
  0.5s|     1 |     0 |  1361 |     - |    10M |   0 | 537 | 585 |1228 | 586 | 12 |   0 |   0 | 0.000000e+00 | 8.778938e+00 |    Inf | unknown
 time | node  | left  |LP iter|LP it/n|mem/heur|mdpt |vars |cons |rows |cuts |sepa|confs|strbr|  dualbound   | primalbound  |  gap   | compl. 
r 0.8s|     1 |     0 |  4763 |     - |intshift|   0 | 537 | 574 |1228 | 586 | 12 |   0 |   0 | 0.000000e+00 | 8.547976e+00 |    Inf | unknown
  1.9s|     1 |     0 |  4763 |     - |    10M |   0 | 537 | 574 |1228 | 586 | 12 |   0 |   0 | 0.000000e+00 | 8.547976e+00 |    Inf | unknown
  1.9s|     1 |     0 |  4819 |     - |    11M |   0 | 537 | 574 |1257 | 615 | 13 |   0 |   0 | 0.000000e+00 | 8.547976e+00 |    Inf | unknown
  2.0s|     1 |     0 |  4837 |     - |    11M |   0 | 537 | 574 |1270 | 628 | 14 |   0 |   0 | 0.000000e+00 | 8.547976e+00 |    Inf | unknown
  2.0s|     1 |     0 |  4837 |     - |    11M |   0 | 537 | 574 |1270 | 628 | 14 |   0 |   5 | 0.000000e+00 | 8.547976e+00 |    Inf | unknown
  2.0s|     1 |     0 |  4873 |     - |    11M |   0 | 537 | 574 |1292 | 650 | 15 |   0 |   5 | 0.000000e+00 | 8.547976e+00 |    Inf | unknown
  2.0s|     1 |     0 |  4898 |     - |    11M |   0 | 537 | 574 |1301 | 659 | 16 |   0 |   5 | 0.000000e+00 | 8.547976e+00 |    Inf | unknown
  2.0s|     1 |     0 |  4898 |     - |    11M |   0 | 537 | 574 |1301 | 659 | 16 |   0 |  10 | 0.000000e+00 | 8.547976e+00 |    Inf | unknown
  2.0s|     1 |     0 |  4938 |     - |    11M |   0 | 537 | 574 |1318 | 676 | 17 |   0 |  10 | 0.000000e+00 | 8.547976e+00 |    Inf | unknown
  2.0s|     1 |     0 |  4963 |     - |    11M |   0 | 537 | 574 |1020 | 686 | 18 |   0 |  10 | 0.000000e+00 | 8.547976e+00 |    Inf | unknown
  2.1s|     1 |     0 |  4963 |     - |    11M |   0 | 537 | 574 |1020 | 686 | 18 |   0 |  15 | 0.000000e+00 | 8.547976e+00 |    Inf | unknown
  2.1s|     1 |     0 |  5010 |     - |    11M |   0 | 537 | 574 |1043 | 709 | 19 |   0 |  15 | 0.000000e+00 | 8.547976e+00 |    Inf | unknown
  2.1s|     1 |     0 |  5037 |     - |    11M |   0 | 537 | 574 |1058 | 724 | 20 |   0 |  15 | 0.000000e+00 | 8.547976e+00 |    Inf | unknown
  2.1s|     1 |     0 |  5037 |     - |    11M |   0 | 537 | 574 |1058 | 724 | 20 |   0 |  20 | 0.000000e+00 | 8.547976e+00 |    Inf | unknown
  2.1s|     1 |     0 |  5072 |     - |    11M |   0 | 537 | 574 |1089 | 755 | 21 |   0 |  20 | 0.000000e+00 | 8.547976e+00 |    Inf | unknown
 time | node  | left  |LP iter|LP it/n|mem/heur|mdpt |vars |cons |rows |cuts |sepa|confs|strbr|  dualbound   | primalbound  |  gap   | compl. 
  2.1s|     1 |     0 |  5085 |     - |    11M |   0 | 537 | 574 |1096 | 762 | 22 |   0 |  20 | 0.000000e+00 | 8.547976e+00 |    Inf | unknown
  2.1s|     1 |     0 |  5085 |     - |    11M |   0 | 537 | 574 |1096 | 762 | 22 |   0 |  24 | 0.000000e+00 | 8.547976e+00 |    Inf | unknown
  2.2s|     1 |     0 |  5123 |     - |    11M |   0 | 537 | 574 |1118 | 784 | 23 |   0 |  24 | 0.000000e+00 | 8.547976e+00 |    Inf | unknown
  2.2s|     1 |     0 |  5157 |     - |    11M |   0 | 537 | 574 | 967 | 789 | 24 |   0 |  24 | 0.000000e+00 | 8.547976e+00 |    Inf | unknown
  2.2s|     1 |     2 |  5157 |     - |    11M |   0 | 537 | 574 | 967 | 789 | 24 |   0 |  24 | 0.000000e+00 | 8.547976e+00 |    Inf | unknown
d 2.4s|    10 |    11 |  6723 | 553.3 |pscostdi|   9 | 537 | 574 |1175 |1584 |  6 |   0 |  70 | 0.000000e+00 | 5.616249e+00 |    Inf | unknown
d 2.5s|    24 |    24 |  9292 | 328.2 |fracdivi|   9 | 537 | 574 |1056 |2759 |  2 |   0 |  94 | 0.000000e+00 | 4.894990e+00 |    Inf | unknown
d 3.1s|    76 |    75 | 17938 | 215.9 |fracdivi|  10 | 537 | 574 |1184 |6651 |  9 |   1 | 148 | 0.000000e+00 | 4.263880e+00 |    Inf | unknown
  3.4s|   100 |    99 | 23627 | 221.1 |    16M |  10 | 537 | 574 |1001 |9031 |  2 |   1 | 148 | 0.000000e+00 | 4.263880e+00 |    Inf | unknown
  4.4s|   200 |   199 | 45831 | 221.5 |    24M |  12 | 537 | 574 |1038 |  17k|  2 |   2 | 150 | 0.000000e+00 | 4.263880e+00 |    Inf | unknown
  5.6s|   300 |   299 | 65801 | 214.2 |    28M |  14 | 537 | 574 |1096 |  26k|  6 |   4 | 151 | 0.000000e+00 | 4.263880e+00 |    Inf | unknown
  6.5s|   400 |   397 | 84614 | 207.7 |    33M |  14 | 537 | 574 |1161 |  35k|  5 |   8 | 158 | 0.000000e+00 | 4.263880e+00 |    Inf | unknown
  7.4s|   500 |   493 |103766 | 204.5 |    38M |  15 | 537 | 574 |1334 |  44k|  7 |  12 | 159 | 0.000000e+00 | 4.263880e+00 |    Inf | unknown
  8.4s|   600 |   591 |124650 | 205.2 |    43M |  16 | 537 | 574 |1228 |  53k|  7 |  21 | 165 | 4.500357e-02 | 4.263880e+00 |9374.54%| unknown
  9.3s|   700 |   679 |141635 | 200.1 |    45M |  17 | 537 | 574 |1299 |  61k|  7 |  36 | 169 | 1.597135e-01 | 4.263880e+00 |2569.70%| unknown
 time | node  | left  |LP iter|LP it/n|mem/heur|mdpt |vars |cons |rows |cuts |sepa|confs|strbr|  dualbound   | primalbound  |  gap   | compl. 
d10.2s|   799 |   763 |157373 | 195.0 |pscostdi|  17 | 537 | 574 |1295 |  68k|  8 |  43 | 172 | 2.482302e-01 | 4.043669e+00 |1529.00%|  14.58%
 10.2s|   800 |   764 |157565 | 195.0 |    48M |  17 | 537 | 574 |1259 |  68k|  7 |  43 | 172 | 2.482302e-01 | 4.043669e+00 |1529.00%|  14.62%
 11.1s|   900 |   856 |174966 | 192.7 |    51M |  18 | 537 | 574 |1286 |  76k|  6 |  56 | 175 | 5.918125e-01 | 4.043669e+00 | 583.27%|  15.49%
d11.4s|   943 |   876 |181835 | 191.2 |distribu|  18 | 537 | 574 |1274 |  80k|  7 |  58 | 176 | 6.500175e-01 | 3.916422e+00 | 502.51%|  16.21%
 12.0s|  1000 |   925 |191337 | 189.8 |    53M |  18 | 537 | 574 |1183 |  84k|  6 |  70 | 180 | 6.500216e-01 | 3.916422e+00 | 502.51%|  16.91%
 12.7s|  1100 |  1003 |205522 | 185.4 |    56M |  18 | 537 | 574 |1209 |  91k|  7 |  82 | 182 | 6.752319e-01 | 3.916422e+00 | 480.01%|  17.59%
*13.1s|  1147 |   955 |212109 | 183.6 |    LP  |  19 | 537 | 574 |1424 |  94k|  9 |  87 | 185 | 6.856125e-01 | 3.497520e+00 | 410.13%|  19.05%
 13.4s|  1200 |   976 |217567 | 180.0 |    58M |  19 | 537 | 574 |1334 |  97k|  5 |  98 | 186 | 7.142995e-01 | 3.497520e+00 | 389.64%|  19.81%
 14.0s|  1300 |  1008 |227934 | 174.1 |    60M |  20 | 537 | 574 |1322 | 103k|  7 | 106 | 186 | 7.203579e-01 | 3.497520e+00 | 385.53%|  21.25%
 14.6s|  1400 |  1030 |237204 | 168.3 |    60M |  20 | 537 | 574 |1234 | 108k|  5 | 117 | 189 | 7.399494e-01 | 3.497520e+00 | 372.67%|  22.52%
 15.1s|  1500 |  1060 |246767 | 163.5 |    61M |  20 | 537 | 574 |1316 | 113k|  4 | 122 | 189 | 7.922648e-01 | 3.497520e+00 | 341.46%|  23.35%
 15.6s|  1600 |  1092 |256118 | 159.1 |    63M |  20 | 537 | 574 |1155 | 118k|  0 | 132 | 189 | 8.740581e-01 | 3.497520e+00 | 300.15%|  24.28%
 16.2s|  1700 |  1114 |266737 | 156.0 |    64M |  20 | 537 | 574 |1297 | 123k|  5 | 136 | 190 | 9.795233e-01 | 3.497520e+00 | 257.06%|  25.59%
 16.8s|  1800 |  1144 |276830 | 152.9 |    65M |  20 | 537 | 574 |1218 | 129k|  1 | 143 | 194 | 9.947676e-01 | 3.497520e+00 | 251.59%|  26.35%
 17.3s|  1900 |  1170 |285281 | 149.3 |    68M |  20 | 537 | 574 |1205 | 134k|  7 | 148 | 196 | 1.048844e+00 | 3.497520e+00 | 233.46%|  27.58%
 time | node  | left  |LP iter|LP it/n|mem/heur|mdpt |vars |cons |rows |cuts |sepa|confs|strbr|  dualbound   | primalbound  |  gap   | compl. 
 17.8s|  2000 |  1184 |292933 | 145.7 |    68M |  21 | 537 | 574 |1170 | 138k|  0 | 156 | 196 | 1.084673e+00 | 3.497520e+00 | 222.45%|  28.64%
 18.2s|  2100 |  1208 |301063 | 142.6 |    69M |  21 | 537 | 574 |1229 | 143k|  0 | 164 | 196 | 1.084673e+00 | 3.497520e+00 | 222.45%|  29.53%
 18.8s|  2200 |  1244 |309970 | 140.2 |    71M |  21 | 537 | 574 |1229 | 148k|  2 | 179 | 199 | 1.092295e+00 | 3.497520e+00 | 220.20%|  30.50%
 19.3s|  2300 |  1264 |318871 | 137.9 |    72M |  21 | 537 | 574 |1231 | 153k|  2 | 183 | 201 | 1.092298e+00 | 3.497520e+00 | 220.20%|  31.54%
 19.8s|  2400 |  1298 |328530 | 136.2 |    74M |  21 | 537 | 574 |1279 | 158k|  4 | 193 | 204 | 1.110574e+00 | 3.497520e+00 | 214.93%|  32.36%
L20.0s|  2433 |  1203 |330920 | 135.4 |    alns|  21 | 537 | 574 |1336 | 159k|  2 | 194 | 205 | 1.110574e+00 | 3.381696e+00 | 204.50%|  33.17%
 20.4s|  2500 |  1210 |335581 | 133.6 |    74M |  21 | 537 | 574 |1219 | 162k|  6 | 196 | 206 | 1.110574e+00 | 3.381696e+00 | 204.50%|  33.94%
 20.8s|  2600 |  1214 |342176 | 131.0 |    74M |  21 | 537 | 574 |1230 | 166k|  2 | 201 | 210 | 1.134387e+00 | 3.381696e+00 | 198.11%|  34.93%
 21.3s|  2700 |  1212 |350285 | 129.1 |    74M |  21 | 537 | 574 |1339 | 170k|  5 | 208 | 213 | 1.139890e+00 | 3.381696e+00 | 196.67%|  36.05%
 21.7s|  2800 |  1212 |356903 | 126.9 |    75M |  21 | 537 | 574 |1228 | 174k|  2 | 213 | 213 | 1.150143e+00 | 3.381696e+00 | 194.02%|  37.30%
 22.1s|  2900 |  1202 |363359 | 124.7 |    75M |  21 | 537 | 574 |1248 | 177k|  3 | 219 | 216 | 1.174090e+00 | 3.381696e+00 | 188.03%|  38.72%
 22.5s|  3000 |  1188 |369086 | 122.5 |    77M |  21 | 537 | 574 |1176 | 180k|  0 | 222 | 217 | 1.223125e+00 | 3.381696e+00 | 176.48%|  40.04%
 22.9s|  3100 |  1184 |375790 | 120.7 |    78M |  22 | 537 | 574 |1473 | 183k|  4 | 224 | 218 | 1.253076e+00 | 3.381696e+00 | 169.87%|  40.94%
 23.3s|  3200 |  1176 |382567 | 119.0 |    78M |  22 | 537 | 574 |1148 | 187k|  0 | 231 | 224 | 1.264543e+00 | 3.381696e+00 | 167.42%|  42.31%
 23.7s|  3300 |  1180 |389829 | 117.6 |    78M |  22 | 537 | 574 |1176 | 191k|  0 | 234 | 225 | 1.357022e+00 | 3.381696e+00 | 149.20%|  43.39%
 time | node  | left  |LP iter|LP it/n|mem/heur|mdpt |vars |cons |rows |cuts |sepa|confs|strbr|  dualbound   | primalbound  |  gap   | compl. 
 24.1s|  3400 |  1172 |395616 | 115.9 |    78M |  22 | 537 | 574 |1087 | 194k|  0 | 243 | 229 | 1.420939e+00 | 3.381696e+00 | 137.99%|  44.45%
 24.5s|  3500 |  1178 |402931 | 114.7 |    79M |  22 | 537 | 574 |1178 | 198k|  5 | 247 | 233 | 1.445085e+00 | 3.381696e+00 | 134.01%|  45.43%
 24.9s|  3600 |  1182 |409751 | 113.4 |    80M |  22 | 537 | 574 |1152 | 202k|  0 | 256 | 234 | 1.445108e+00 | 3.381696e+00 | 134.01%|  46.18%
 25.3s|  3700 |  1170 |415370 | 111.8 |    80M |  22 | 537 | 574 |1312 | 205k|  2 | 263 | 235 | 1.454096e+00 | 3.381696e+00 | 132.56%|  47.31%
 25.7s|  3800 |  1174 |421794 | 110.6 |    81M |  22 | 537 | 574 |1240 | 208k|  5 | 269 | 237 | 1.458823e+00 | 3.381696e+00 | 131.81%|  48.04%
 26.2s|  3900 |  1184 |429207 | 109.6 |    82M |  22 | 537 | 574 |1235 | 212k|  7 | 273 | 239 | 1.467518e+00 | 3.381696e+00 | 130.44%|  48.77%
 26.5s|  4000 |  1178 |436205 | 108.6 |    82M |  22 | 537 | 574 |1214 | 216k|  5 | 281 | 240 | 1.523419e+00 | 3.381696e+00 | 121.98%|  49.98%
 26.9s|  4100 |  1164 |442195 | 107.5 |    83M |  22 | 537 | 574 |1161 | 219k|  2 | 284 | 242 | 1.544215e+00 | 3.381696e+00 | 118.99%|  50.89%
 27.3s|  4200 |  1144 |447023 | 106.0 |    83M |  22 | 537 | 574 |1502 | 222k|  6 | 288 | 242 | 1.555354e+00 | 3.381696e+00 | 117.42%|  52.27%
 27.6s|  4300 |  1134 |452651 | 104.9 |    83M |  22 | 537 | 574 |1156 | 224k|  0 | 290 | 244 | 1.555521e+00 | 3.381696e+00 | 117.40%|  53.03%
 28.0s|  4400 |  1140 |459285 | 104.0 |    84M |  22 | 537 | 574 |1294 | 228k|  2 | 296 | 247 | 1.598008e+00 | 3.381696e+00 | 111.62%|  53.88%
 28.4s|  4500 |  1114 |463664 | 102.7 |    85M |  22 | 537 | 574 |1285 | 230k|  7 | 301 | 248 | 1.623960e+00 | 3.381696e+00 | 108.24%|  55.10%
 28.7s|  4600 |  1098 |468492 | 101.5 |    85M |  22 | 537 | 574 |1259 | 233k|  1 | 311 | 250 | 1.659320e+00 | 3.381696e+00 | 103.80%|  55.84%
 29.0s|  4700 |  1082 |473185 | 100.3 |    85M |  22 | 537 | 574 |1237 | 235k|  0 | 319 | 254 | 1.676575e+00 | 3.381696e+00 | 101.70%|  56.83%
 29.4s|  4800 |  1054 |478872 |  99.4 |    87M |  22 | 537 | 574 |1253 | 238k|  1 | 326 | 255 | 1.752485e+00 | 3.381696e+00 |  92.97%|  58.15%
 time | node  | left  |LP iter|LP it/n|mem/heur|mdpt |vars |cons |rows |cuts |sepa|confs|strbr|  dualbound   | primalbound  |  gap   | compl. 
 29.7s|  4900 |  1054 |484141 |  98.5 |    87M |  22 | 537 | 574 |1215 | 241k|  1 | 331 | 259 | 1.761936e+00 | 3.381696e+00 |  91.93%|  58.91%
 30.1s|  5000 |  1036 |489392 |  97.5 |    87M |  22 | 537 | 574 |1270 | 243k|  0 | 336 | 264 | 1.787196e+00 | 3.381696e+00 |  89.22%|  59.73%
 30.5s|  5100 |  1030 |495252 |  96.8 |    88M |  22 | 537 | 574 |1144 | 246k|  2 | 340 | 269 | 1.810897e+00 | 3.381696e+00 |  86.74%|  60.36%
 30.9s|  5200 |  1018 |502445 |  96.3 |    89M |  22 | 537 | 574 |1145 | 250k|  1 | 347 | 271 | 1.814484e+00 | 3.381696e+00 |  86.37%|  61.76%
 31.2s|  5300 |  1004 |507557 |  95.5 |    89M |  22 | 537 | 574 |1199 | 252k|  4 | 352 | 271 | 1.814709e+00 | 3.381696e+00 |  86.35%|  62.55%
 31.6s|  5400 |   980 |512232 |  94.6 |    90M |  22 | 537 | 574 |1192 | 255k|  0 | 357 | 273 | 1.828294e+00 | 3.381696e+00 |  84.96%|  63.43%
 32.0s|  5500 |   968 |518982 |  94.1 |    91M |  22 | 537 | 574 |1219 | 258k|  0 | 367 | 278 | 1.873866e+00 | 3.381696e+00 |  80.47%|  64.42%
 32.3s|  5600 |   940 |523969 |  93.3 |    93M |  22 | 537 | 574 |1238 | 260k|  2 | 370 | 279 | 1.888077e+00 | 3.381696e+00 |  79.11%|  65.67%
 32.6s|  5700 |   918 |528622 |  92.5 |    93M |  22 | 537 | 574 |1161 | 262k|  0 | 376 | 283 | 1.898332e+00 | 3.381696e+00 |  78.14%|  67.41%
 33.0s|  5800 |   900 |534010 |  91.8 |    93M |  22 | 537 | 574 |1453 | 265k|  8 | 380 | 285 | 1.901995e+00 | 3.381696e+00 |  77.80%|  68.81%
 33.3s|  5900 |   874 |538982 |  91.1 |    94M |  22 | 537 | 574 |1272 | 267k|  0 | 382 | 286 | 1.919306e+00 | 3.381696e+00 |  76.19%|  69.84%
 33.7s|  6000 |   860 |544880 |  90.5 |    96M |  22 | 537 | 574 |1321 | 270k|  2 | 390 | 293 | 1.993787e+00 | 3.381696e+00 |  69.61%|  70.95%
 34.0s|  6100 |   836 |550573 |  90.0 |    96M |  22 | 537 | 574 |1133 | 272k|  1 | 394 | 296 | 2.051265e+00 | 3.381696e+00 |  64.86%|  72.11%
 34.4s|  6200 |   812 |556601 |  89.5 |    96M |  22 | 537 | 574 |1305 | 275k|  5 | 401 | 301 | 2.066156e+00 | 3.381696e+00 |  63.67%|  73.07%
 34.8s|  6300 |   788 |562534 |  89.0 |    96M |  22 | 537 | 574 |1217 | 278k|  1 | 407 | 305 | 2.104966e+00 | 3.381696e+00 |  60.65%|  74.38%
 time | node  | left  |LP iter|LP it/n|mem/heur|mdpt |vars |cons |rows |cuts |sepa|confs|strbr|  dualbound   | primalbound  |  gap   | compl. 
 35.1s|  6400 |   774 |567962 |  88.5 |    96M |  22 | 537 | 574 |1256 | 280k|  8 | 410 | 306 | 2.104979e+00 | 3.381696e+00 |  60.65%|  74.96%
 35.5s|  6500 |   758 |573142 |  87.9 |    96M |  22 | 537 | 574 |1547 | 283k|  5 | 416 | 311 | 2.135195e+00 | 3.381696e+00 |  58.38%|  76.09%
 35.8s|  6600 |   726 |577654 |  87.3 |    97M |  22 | 537 | 574 |1153 | 285k|  7 | 422 | 314 | 2.150624e+00 | 3.381696e+00 |  57.24%|  77.09%
 36.1s|  6700 |   690 |582408 |  86.7 |    98M |  22 | 537 | 574 |1130 | 287k|  0 | 425 | 315 | 2.155405e+00 | 3.381696e+00 |  56.89%|  78.09%
 36.4s|  6800 |   662 |587130 |  86.1 |    99M |  22 | 537 | 574 |1886 | 289k|  2 | 427 | 319 | 2.167378e+00 | 3.381696e+00 |  56.03%|  78.97%
 36.7s|  6900 |   630 |591739 |  85.5 |    99M |  22 | 537 | 574 |2374 | 291k|  1 | 429 | 321 | 2.179442e+00 | 3.381696e+00 |  55.16%|  79.91%
 37.0s|  7000 |   596 |595849 |  84.9 |    99M |  22 | 537 | 574 |1211 | 293k|  2 | 432 | 323 | 2.198729e+00 | 3.381696e+00 |  53.80%|  80.97%
 37.3s|  7100 |   552 |599734 |  84.2 |    99M |  22 | 537 | 574 |1221 | 294k|  0 | 436 | 324 | 2.228024e+00 | 3.381696e+00 |  51.78%|  82.14%
 37.6s|  7200 |   518 |604216 |  83.7 |    99M |  22 | 537 | 574 |1473 | 296k|  0 | 445 | 327 | 2.318678e+00 | 3.381696e+00 |  45.85%|  83.57%
 37.9s|  7300 |   488 |609217 |  83.2 |   100M |  22 | 537 | 574 |1240 | 298k|  2 | 449 | 328 | 2.337543e+00 | 3.381696e+00 |  44.67%|  84.38%
 38.3s|  7400 |   452 |614500 |  82.8 |   101M |  22 | 537 | 574 |1272 | 300k|  6 | 454 | 329 | 2.353957e+00 | 3.381696e+00 |  43.66%|  85.88%
 38.6s|  7500 |   410 |619041 |  82.3 |   101M |  22 | 537 | 574 |1380 | 302k|  1 | 459 | 330 | 2.357920e+00 | 3.381696e+00 |  43.42%|  86.94%
 38.9s|  7600 |   366 |623963 |  81.9 |   101M |  22 | 537 | 574 |1175 | 303k|  0 | 466 | 332 | 2.462781e+00 | 3.381696e+00 |  37.31%|  88.62%
 39.3s|  7700 |   336 |631342 |  81.8 |   102M |  22 | 537 | 574 |1174 | 306k|  0 | 470 | 334 | 2.535491e+00 | 3.381696e+00 |  33.37%|  89.96%
 39.6s|  7800 |   282 |635045 |  81.2 |   103M |  22 | 537 | 574 |1259 | 307k|  0 | 473 | 334 | 2.579405e+00 | 3.381696e+00 |  31.10%|  91.52%
 time | node  | left  |LP iter|LP it/n|mem/heur|mdpt |vars |cons |rows |cuts |sepa|confs|strbr|  dualbound   | primalbound  |  gap   | compl. 
 39.9s|  7900 |   238 |639336 |  80.7 |   104M |  22 | 537 | 574 |1200 | 309k|  0 | 474 | 335 | 2.631853e+00 | 3.381696e+00 |  28.49%|  93.07%
 40.2s|  8000 |   194 |643690 |  80.3 |   105M |  22 | 537 | 574 |1192 | 310k|  0 | 478 | 337 | 2.653081e+00 | 3.381696e+00 |  27.46%|  94.18%
 40.4s|  8100 |   154 |648020 |  79.8 |   105M |  22 | 537 | 574 |1176 | 312k|  0 | 481 | 337 | 2.726451e+00 | 3.381696e+00 |  24.03%|  95.56%
 40.7s|  8200 |   112 |651688 |  79.3 |   105M |  22 | 537 | 574 |1808 | 313k|  0 | 484 | 337 | 2.798784e+00 | 3.381696e+00 |  20.83%|  97.15%
 41.0s|  8300 |    70 |656978 |  79.0 |   106M |  22 | 537 | 574 |1266 | 315k|  0 | 490 | 342 | 2.927256e+00 | 3.381696e+00 |  15.52%|  98.23%
 41.3s|  8400 |     0 |660702 |  78.5 |   108M |  22 | 537 | 348 |1677 | 316k|  0 | 501 | 344 | 3.381696e+00 | 3.381696e+00 |   0.00%|  99.99%

SCIP Status        : problem is solved [optimal solution found]
Solving Time (sec) : 41.34
Solving Nodes      : 8400
Primal Bound       : +3.38169640734679e+00 (10 solutions)
Dual Bound         : +3.38169640734679e+00
Gap                : 0.00 %


--- Reading solution for model GAMS_MODEL
***
*** Solver did not provide marginals for model GAMS_MODEL
***
--- Executing after solve: elapsed 0:00:41.415
--- model.gms(1960) 3 Mb
--- model.gms(2881) 5 Mb
--- Putfile results /local/scratch/a/sgusev/repos/k_means/data/gams_scip_gdp.hull_exact/no_mode/2026-02-15_21-56-10/original/results.dat
--- Putfile statresults /local/scratch/a/sgusev/repos/k_means/data/gams_scip_gdp.hull_exact/no_mode/2026-02-15_21-56-10/original/resultsstat.dat
*** Status: Normal completion
--- Job model.gms Stop 02/15/26 21:56:52 elapsed 0:00:41.416
Original problem solved. Time taken: 42.01338458061218 seconds
Original objective value: 3.381696407346789
